interdiction/MCDM/NO_CORR/GEN_FROM_60/12_ITEMS_1000_GEN/K5012W18.KNP.mps
NAME          BLANK   
ROWS
 N  OBJROW
 L  R0000000
COLUMNS
    C0000000  OBJROW     -366.         R0000000  581.        
    C0000001  OBJROW     -417.         R0000000  78.         
    C0000002  OBJROW     -226.         R0000000  110.        
    C0000003  OBJROW     -185.         R0000000  45.         
    C0000004  OBJROW     -361.         R0000000  23.         
    C0000005  OBJROW     -365.         R0000000  135.        
    C0000006  OBJROW     -654.         R0000000  669.        
    C0000007  OBJROW     -140.         R0000000  414.        
    C0000008  OBJROW     -502.         R0000000  251.        
    C0000009  OBJROW     -924.         R0000000  884.        
    C0000010  OBJROW     -690.         R0000000  598.        
    C0000011  OBJROW     -938.         R0000000  577.        
RHS
    RHS       R0000000  14132.      
BOUNDS
 BV BOUND     C0000000  1.          
 BV BOUND     C0000001  1.          
 BV BOUND     C0000002  1.          
 BV BOUND     C0000003  1.          
 BV BOUND     C0000004  1.          
 BV BOUND     C0000005  1.          
 BV BOUND     C0000006  1.          
 BV BOUND     C0000007  1.          
 BV BOUND     C0000008  1.          
 BV BOUND     C0000009  1.          
 BV BOUND     C0000010  1.          
 BV BOUND     C0000011  1.          
ENDATA
