data/MCDM/NO_CORR/GEN_FROM_60/12_ITEMS_1000_GEN/K5012W18.KNP.txt
N 12
M 13
LC 12
LC 13
LC 14
LC 15
LC 16
LC 17
LC 18
LC 19
LC 20
LC 21
LC 22
LC 23
LR 1
LR 2
LR 3
LR 4
LR 5
LR 6
LR 7
LR 8
LR 9
LR 10
LR 11
LR 12
LR 13
LO -366
LO -417
LO -226
LO -185
LO -361
LO -365
LO -654
LO -140
LO -502
LO -924
LO -690
LO -938
OS 1
IC 937
IC 38
IC 966
IC 83
IC 193
IC 912
IC 378
IC 891
IC 232
IC 793
IC 947
IC 892
IB 3631
